p edge 13 39
e 1 5
e 1 10
e 1 12
e 2 4
e 2 8
e 2 13
e 3 1
e 3 4
e 3 5
e 4 2
e 4 10
e 4 13
e 5 11
e 5 11
e 5 12
e 6 4
e 6 8
e 6 9
e 7 4
e 7 4
e 7 6
e 8 3
e 8 4
e 8 11
e 9 5
e 9 10
e 9 13
e 10 2
e 10 5
e 10 6
e 11 6
e 11 10
e 11 12
e 12 2
e 12 2
e 12 4
e 13 5
e 13 6
e 13 6
